experiment/data/hgs-res/Vrp-Set-P-n50/Vrp-Set-P-n50-hgs/2.hgs1.tour
Route #1: 33 1 43 42 41 23 16
Route #2: 22 28 21 36 47 48
Route #3: 6 2 30 45 4
Route #4: 27 13 15 20 37 5 29
Route #5: 35 14 19 8 46 34
Route #6: 12 10 38 11 7
Route #7: 26
Route #8: 17 49 24 18 25 31 39
Route #9: 3 44 32 9 40
Cost 632.696
